PROBLEM NAME: eil51_n9
KNAPSACK DATA TYPE: uncorrelated
DIMENSION: 9
NUMBER OF ITEMS: 8
CAPACITY OF KNAPSACK: 4945
MIN SPEED: 0.1
MAX SPEED: 1
RENTING RATIO: 5.02
EDGE_WEIGHT_TYPE: CEIL_2D
NODE_COORD_SECTION	(INDEX, X, Y):
1	17	63
2	31	62
3	36	16
4	52	41
5	27	23
6	62	63
7	32	22
8	5	6
9	56	37
ITEMS SECTION	(INDEX, PROFIT, WEIGHT, ASSIGNED NODE NUMBER):
1	808	906	2
2	727	724	6
3	710	416	4
4	572	300	9
5	434	925	3
6	281	930	7
7	218	428	5
8	212	811	8
